30 5 1 1 111111
20 4 1 7 2 6 4 8 5 9 4 1 6 2 5 3 4 4 8 3 2 3 4 3 5 5 3 1 10 3 8 5 10 4 1 1 2 1 3 1 5 10 4 1 8 3 9 4 9 5 1 4 1 7 3 10 4 3 5 6 4 1 5 2 10 4 10 5 5 3 1 10 4 1 5 6 3 1 8 3 1 4 1 4 1 4 2 7 3 5 4 1 4 2 4 3 4 4 5 5 9 3 1 3 3 7 4 5 4 1 10 2 9 3 10 5 4 3 1 1 3 2 5 1 4 1 3 2 1 3 2 5 4 4 1 3 2 7 3 6 4 9 3 2 3 4 1 5 2 3 1 2 3 7 5 9 4 1 6 2 10 3 4 4 9 
20 3 1 4 2 10 4 10 3 1 10 4 9 5 9 4 1 6 2 4 3 5 4 2 3 3 7 4 9 5 2 4 1 7 2 1 3 6 5 5 4 2 6 3 5 4 6 5 8 4 2 3 3 8 4 8 5 8 4 1 3 3 9 4 2 5 2 4 2 8 3 7 4 10 5 7 4 1 6 2 8 3 4 4 8 3 3 5 4 6 5 3 3 1 2 3 4 5 2 4 1 2 2 3 3 7 5 7 4 2 3 3 2 4 3 5 7 4 1 1 2 5 3 7 5 3 4 1 7 3 8 4 5 5 9 3 1 2 3 8 5 5 3 1 6 2 9 3 2 4 1 5 2 6 3 3 4 7 3 2 1 3 4 4 4 
20 3 1 7 2 6 4 10 4 2 6 3 7 4 2 5 4 3 1 10 3 8 5 9 4 1 5 3 2 4 9 5 3 4 1 10 2 1 4 3 5 5 4 2 5 3 2 4 2 5 10 4 1 4 2 2 3 6 4 4 3 1 10 3 2 5 6 3 2 8 4 8 5 8 4 1 3 2 2 3 3 5 2 3 2 2 3 9 5 4 4 1 9 2 8 3 4 4 3 4 1 10 2 2 3 9 5 9 4 1 7 2 5 3 1 5 5 3 1 7 2 9 4 5 3 3 3 4 8 5 3 3 1 2 2 9 5 1 3 1 1 3 4 5 1 3 1 2 4 5 5 8 3 1 5 4 7 5 8 
20 4 2 10 3 8 4 5 5 8 4 1 1 2 2 3 5 4 4 3 1 7 3 3 5 6 3 2 5 3 5 5 7 3 1 3 2 10 5 4 4 1 4 2 5 3 1 5 8 3 1 5 2 4 4 6 3 1 6 2 10 4 4 3 1 2 2 10 5 3 3 2 8 3 3 5 6 4 1 4 2 6 3 9 5 7 3 2 1 3 3 4 8 3 3 3 4 2 5 3 4 1 9 2 6 3 3 4 5 4 1 2 2 8 4 6 5 5 3 2 6 4 4 5 2 3 2 5 4 2 5 10 4 1 8 2 4 3 1 5 7 3 2 4 3 2 5 8 3 1 8 3 9 5 4 
20 3 1 2 3 10 4 7 3 1 8 4 5 5 10 3 2 1 3 4 4 9 3 1 10 3 4 4 10 4 1 9 2 1 4 10 5 7 4 1 10 2 5 3 1 5 9 3 2 6 3 4 5 2 4 1 4 2 5 3 3 5 1 4 2 3 3 7 4 1 5 8 3 2 2 4 6 5 6 3 1 7 3 10 4 9 4 1 5 2 2 3 9 5 5 4 1 3 2 6 4 6 5 1 3 1 3 2 3 4 3 3 3 3 4 5 5 1 4 1 9 2 5 4 3 5 7 4 1 7 3 7 4 8 5 6 4 1 5 2 6 3 10 4 5 4 2 9 3 1 4 1 5 8 4 1 4 2 9 3 5 4 8 
20 4 1 5 2 3 3 9 4 7 3 2 8 3 4 4 7 3 1 2 3 7 5 6 4 1 7 3 10 4 2 5 9 3 3 5 4 4 5 7 4 1 5 2 9 3 10 5 9 4 1 2 2 7 4 2 5 8 4 1 5 3 7 4 5 5 5 4 2 4 3 5 4 3 5 9 3 3 1 4 9 5 1 4 1 8 2 6 4 2 5 1 3 1 5 2 10 4 3 4 1 3 2 4 3 9 4 7 3 1 1 2 1 4 2 4 1 8 2 6 3 6 5 3 3 1 7 3 5 5 2 3 2 4 4 8 5 1 3 2 4 3 4 5 7 3 3 7 4 9 5 1 3 1 9 2 6 4 10 
20 3 1 3 2 9 4 10 3 1 7 2 2 3 1 3 1 7 4 7 5 5 3 1 6 2 4 4 6 4 1 9 2 9 4 7 5 7 3 2 7 3 9 4 1 4 1 5 2 5 3 5 5 6 3 1 5 3 7 5 5 3 1 8 2 3 3 6 3 1 9 2 2 3 4 3 2 7 4 4 5 1 3 1 6 2 1 4 2 4 1 2 2 10 3 5 5 3 4 2 9 3 2 4 8 5 9 4 1 3 2 10 3 1 4 3 4 1 7 2 8 3 5 5 5 3 1 9 2 10 5 3 3 1 2 2 6 4 2 4 1 5 3 2 4 6 5 8 3 2 10 3 9 5 9 
20 3 1 9 2 7 5 7 3 2 3 3 3 5 5 4 1 3 2 8 3 7 5 7 4 1 5 2 3 3 5 4 1 4 1 8 2 2 3 3 5 6 4 2 2 3 7 4 10 5 4 4 1 4 2 2 3 6 4 3 4 1 6 2 9 4 10 5 3 4 1 4 2 6 3 6 4 1 3 1 8 2 4 3 8 4 1 4 2 3 4 1 5 2 4 1 7 2 7 4 2 5 6 3 1 9 3 3 5 9 3 2 9 3 3 4 1 4 1 5 2 10 3 6 4 7 4 1 2 2 6 3 10 4 6 4 1 10 2 7 4 10 5 9 3 1 4 2 10 5 8 4 1 3 2 5 4 1 5 8 4 1 2 2 9 3 7 4 7 
20 3 2 8 3 7 5 10 3 1 2 2 6 5 2 4 1 1 2 3 4 6 5 8 3 1 4 2 9 5 9 3 1 7 2 6 4 6 4 1 10 2 9 4 10 5 7 4 1 6 2 5 4 7 5 7 3 1 5 2 10 3 2 4 1 1 2 8 3 7 4 10 4 1 7 3 5 4 4 5 6 4 1 10 2 6 3 9 4 9 3 2 6 3 2 5 1 4 1 2 2 5 3 6 5 4 3 1 1 2 5 3 10 4 2 3 3 6 4 2 5 7 3 2 4 3 5 4 2 3 2 4 4 9 5 4 3 1 7 2 10 5 1 3 2 3 3 2 4 9 4 1 9 2 7 3 6 5 7 
20 4 1 1 2 9 3 9 4 2 3 1 10 3 4 4 6 4 1 6 2 10 4 3 5 1 4 2 10 3 6 4 5 5 1 4 1 1 2 6 3 1 5 6 4 2 5 3 10 4 9 5 8 4 1 5 2 2 3 2 4 7 4 2 9 3 1 4 8 5 2 4 1 10 3 5 4 1 5 5 3 2 4 4 2 5 4 4 1 8 3 3 4 2 5 2 4 2 1 3 2 4 2 5 10 3 1 2 4 6 5 8 4 1 10 2 6 4 7 5 8 3 1 1 2 5 5 7 4 1 10 3 3 4 8 5 5 4 1 10 3 10 4 9 5 7 3 3 7 4 8 5 8 4 2 2 3 9 4 6 5 10 4 1 1 2 8 3 3 5 5 
20 3 1 8 3 4 4 10 3 1 5 2 2 4 1 4 1 3 2 6 3 10 4 6 4 1 3 3 9 4 1 5 2 4 1 4 2 7 4 7 5 8 4 1 3 2 2 3 8 5 5 4 1 1 2 9 3 3 5 7 4 1 7 2 9 4 7 5 6 3 2 1 3 8 5 10 4 1 8 2 7 3 4 5 6 4 1 7 2 6 3 3 4 6 3 1 8 4 3 5 7 4 1 6 2 7 3 1 5 2 3 2 9 3 1 5 1 3 1 5 3 7 4 10 3 1 6 4 4 5 9 4 2 4 3 1 4 7 5 9 3 1 8 3 7 5 4 3 1 7 2 5 5 9 3 2 8 3 8 5 5 
20 3 1 3 3 7 4 4 3 1 6 2 8 5 6 4 2 8 3 8 4 9 5 3 3 1 9 3 2 4 9 4 2 6 3 7 4 5 5 8 3 2 6 4 10 5 2 4 1 1 3 3 4 8 5 7 4 1 6 3 7 4 2 5 2 4 1 1 2 2 4 6 5 7 4 1 6 2 8 3 3 4 5 3 3 8 4 8 5 4 4 2 5 3 10 4 4 5 7 4 1 7 2 2 3 10 5 1 3 2 3 3 7 4 6 3 1 2 2 7 5 5 3 1 2 3 7 4 1 4 1 8 2 2 4 4 5 4 4 1 6 2 3 3 2 5 5 4 1 8 2 1 3 7 4 5 3 1 5 4 4 5 4 
20 4 1 4 2 10 3 10 4 4 3 2 10 4 4 5 4 4 2 10 3 2 4 10 5 4 4 1 10 3 7 4 9 5 1 4 1 2 2 2 3 2 4 5 3 1 9 2 7 5 7 4 2 1 3 5 4 2 5 2 3 2 9 3 7 5 8 3 2 9 3 1 5 1 3 3 9 4 7 5 9 3 1 5 2 8 4 8 4 1 3 2 8 3 2 4 4 3 2 9 3 6 5 2 3 2 8 3 3 4 3 3 1 6 2 10 4 1 3 2 4 3 4 5 8 4 1 7 2 9 3 7 4 3 3 1 10 3 4 5 6 3 1 10 2 6 5 3 3 2 6 3 6 5 1 
20 4 1 6 3 7 4 9 5 6 3 1 1 2 8 4 2 3 2 3 3 1 4 1 3 3 6 4 2 5 6 3 2 7 3 6 4 1 4 1 9 3 1 4 1 5 8 3 1 9 4 7 5 8 3 1 1 3 6 4 4 4 1 5 3 4 4 2 5 2 3 1 6 2 10 4 2 4 1 2 2 6 4 5 5 7 4 1 6 2 9 3 1 4 10 4 1 9 2 3 3 9 4 10 4 1 6 3 10 4 3 5 10 3 2 8 3 1 4 5 3 2 6 4 5 5 9 4 1 4 3 1 4 10 5 10 3 3 5 4 5 5 3 3 2 6 4 6 5 6 3 2 1 4 1 5 10 
20 4 1 7 2 5 3 7 4 2 4 2 5 3 2 4 10 5 3 4 2 4 3 4 4 5 5 8 4 1 8 2 5 4 8 5 5 4 1 4 3 10 4 10 5 7 4 1 5 2 9 4 9 5 2 4 1 6 3 3 4 5 5 4 3 1 8 2 10 5 9 4 1 4 2 4 3 5 4 9 4 1 4 2 6 3 5 4 2 3 1 6 3 6 4 3 4 1 2 2 3 4 10 5 9 4 1 5 2 6 3 5 5 3 4 2 1 3 2 4 6 5 4 4 1 9 2 5 4 4 5 4 4 1 9 3 4 4 9 5 3 3 1 1 4 10 5 4 4 1 9 2 8 4 3 5 3 4 1 9 2 6 3 1 5 2 3 1 9 2 5 3 9 
20 4 1 3 2 4 3 2 4 8 4 1 7 2 8 4 6 5 9 4 1 5 3 3 4 4 5 2 3 1 2 3 7 5 7 3 3 6 4 5 5 1 3 1 10 2 2 4 3 3 1 3 4 8 5 2 4 1 7 3 7 4 5 5 5 4 1 4 2 10 4 6 5 4 4 2 6 3 5 4 2 5 6 4 1 2 2 5 3 1 4 3 3 1 10 2 6 5 10 4 1 10 2 5 3 3 4 8 3 1 4 2 7 4 6 4 1 4 2 4 3 6 5 8 3 1 2 2 3 3 10 4 1 5 2 5 3 4 5 2 3 1 1 3 9 5 4 3 1 7 4 4 5 1 3 1 2 2 2 5 5 
20 4 2 8 3 7 4 4 5 1 3 2 7 3 2 5 2 4 1 7 2 4 4 2 5 7 3 1 8 2 2 5 1 4 1 10 2 6 3 8 4 5 4 1 3 2 3 3 10 4 3 4 2 6 3 9 4 1 5 2 4 1 3 3 10 4 1 5 1 4 1 6 3 5 4 3 5 8 4 1 4 2 3 3 1 5 6 3 2 3 3 7 5 1 3 1 4 3 7 5 1 3 2 9 3 7 5 3 3 2 5 3 8 5 3 3 2 8 4 4 5 10 3 2 9 3 8 4 6 3 2 4 4 5 5 6 3 1 7 4 7 5 9 4 1 8 2 2 4 1 5 9 4 2 7 3 3 4 10 5 6 
20 3 1 4 3 6 5 7 3 1 4 2 3 5 5 4 1 8 2 10 3 7 4 6 3 1 2 2 3 3 2 4 1 3 2 9 3 8 5 6 3 3 1 4 1 5 3 4 1 8 2 8 4 7 5 8 3 3 6 4 8 5 3 3 1 4 4 2 5 4 3 1 4 4 1 5 10 3 2 2 3 7 5 4 4 1 10 2 9 4 2 5 4 3 1 6 2 10 5 7 3 2 1 4 5 5 4 3 2 10 3 6 4 2 3 2 9 4 8 5 10 4 1 6 2 2 3 5 5 5 4 1 3 2 1 4 6 5 1 4 2 10 3 4 4 10 5 4 4 2 5 3 3 4 10 5 8 
20 4 2 2 3 1 4 6 5 6 4 1 3 2 10 3 3 5 6 4 1 9 3 6 4 7 5 2 3 1 2 2 6 4 5 4 1 4 2 10 4 3 5 8 3 2 2 3 10 5 6 3 2 10 4 1 5 3 3 1 3 4 3 5 2 3 2 4 4 7 5 8 3 3 2 4 1 5 7 4 1 9 2 10 3 7 4 4 4 1 8 2 6 3 5 5 3 4 2 7 3 10 4 4 5 7 3 1 6 3 4 4 9 3 1 10 4 8 5 5 3 2 7 3 6 4 7 3 3 8 4 2 5 3 4 2 4 3 4 4 6 5 9 4 1 1 2 7 3 7 4 6 4 1 2 2 7 3 2 5 10 
20 3 3 5 4 5 5 9 3 2 7 3 5 5 9 3 1 4 2 7 4 10 4 2 7 3 10 4 7 5 10 3 1 9 2 7 4 4 4 1 10 2 5 3 8 5 8 3 1 7 2 2 4 9 4 1 2 3 2 4 5 5 10 4 1 9 3 10 4 3 5 9 4 1 1 3 8 4 8 5 9 3 1 6 2 8 4 4 3 2 1 3 1 4 10 3 2 4 4 1 5 4 4 2 10 3 10 4 10 5 8 3 3 1 4 1 5 4 3 1 2 3 1 5 1 4 1 5 2 9 3 8 4 10 4 1 10 2 2 3 10 4 8 3 1 10 3 3 4 7 4 2 8 3 10 4 9 5 7 
20 4 1 6 2 1 4 3 5 7 4 1 3 2 8 3 7 4 4 3 1 7 2 7 4 6 4 1 7 3 6 4 3 5 6 3 2 10 3 6 5 8 3 3 10 4 2 5 2 3 1 6 4 3 5 1 3 1 6 2 5 3 5 3 1 3 2 7 5 6 4 1 4 2 4 3 7 5 7 4 1 9 2 5 3 4 5 1 4 1 4 3 2 4 4 5 9 4 1 4 2 1 4 4 5 1 4 1 1 2 6 3 8 5 10 4 2 7 3 1 4 8 5 2 4 1 9 2 9 4 6 5 7 3 1 1 2 9 3 2 4 1 5 2 9 3 4 4 10 4 1 2 2 5 3 1 4 7 3 2 7 3 7 4 8 
20 3 1 4 2 2 4 8 4 1 5 2 2 3 10 5 5 3 1 1 2 2 3 10 3 1 10 4 1 5 4 4 2 4 3 9 4 5 5 1 4 2 6 3 4 4 10 5 9 4 1 2 3 1 4 1 5 10 4 1 4 2 1 3 2 4 5 3 1 7 2 9 5 9 4 1 7 3 8 4 6 5 9 3 2 2 4 9 5 4 4 1 7 2 7 3 5 5 1 3 1 10 3 6 4 9 3 2 7 3 9 4 10 4 2 4 3 7 4 10 5 8 4 1 2 2 3 4 4 5 2 4 1 5 3 3 4 7 5 10 4 1 2 2 10 3 5 5 2 4 1 1 2 7 3 5 5 1 4 1 9 2 10 3 1 5 2 
20 4 2 2 3 1 4 7 5 3 3 2 3 3 8 4 5 3 2 10 4 2 5 2 4 1 1 2 7 3 2 5 9 3 2 10 4 10 5 8 4 1 3 2 2 3 4 5 5 4 1 1 3 4 4 4 5 7 4 1 7 2 2 4 2 5 3 3 2 1 3 10 5 3 4 1 7 2 7 3 7 4 8 4 1 9 2 9 4 4 5 7 4 1 7 2 5 3 8 5 4 4 1 1 3 4 4 5 5 6 3 3 3 4 3 5 8 3 1 7 3 8 4 8 4 1 2 2 2 3 6 4 5 3 2 9 3 4 5 3 4 2 2 3 5 4 9 5 9 4 1 6 3 6 4 1 5 6 3 1 3 4 5 5 9 
20 3 2 2 4 3 5 6 4 1 9 2 7 3 10 5 6 4 1 5 2 3 4 6 5 8 4 1 9 2 5 3 9 4 9 4 1 10 2 5 3 10 4 9 4 2 10 3 6 4 3 5 5 4 1 6 2 9 3 7 5 5 3 1 1 2 9 3 2 4 2 10 3 10 4 4 5 5 3 2 7 4 2 5 10 4 1 5 2 6 3 9 4 2 4 1 8 3 6 4 9 5 7 4 1 6 2 8 3 10 5 10 3 1 8 2 9 3 2 3 1 7 2 8 4 4 3 1 7 2 4 4 10 3 1 10 3 8 4 2 3 3 5 4 3 5 6 4 2 5 3 4 4 9 5 4 4 1 9 2 2 4 8 5 6 
20 4 1 7 2 8 4 1 5 5 3 1 8 3 4 4 7 3 3 9 4 9 5 8 4 1 9 2 7 4 7 5 8 4 2 1 3 1 4 8 5 5 4 1 7 2 2 3 1 5 9 4 1 5 2 7 3 1 5 6 4 1 1 2 8 3 2 4 3 3 1 6 3 2 5 5 3 1 7 4 4 5 10 4 1 3 2 2 4 7 5 1 4 2 2 3 5 4 9 5 9 4 2 10 3 9 4 7 5 7 3 1 3 3 8 4 3 4 2 1 3 2 4 1 5 4 4 1 10 3 10 4 7 5 6 4 1 9 2 7 3 3 4 4 4 1 4 3 7 4 9 5 8 4 1 7 2 9 4 1 5 2 3 1 6 2 2 4 3 
20 3 1 8 2 8 4 8 4 1 5 2 10 4 9 5 10 4 2 9 3 5 4 8 5 10 4 1 3 2 8 3 7 4 3 3 2 3 3 4 5 1 3 1 6 2 3 4 7 3 1 8 4 6 5 3 4 1 3 2 2 3 1 4 7 4 1 7 2 3 3 3 5 1 3 2 2 3 1 4 3 4 1 10 2 6 4 10 5 6 3 3 6 4 5 5 5 4 2 6 3 2 4 2 5 1 3 1 1 3 4 5 9 4 1 9 2 2 3 1 5 2 4 1 4 2 10 3 1 4 2 4 1 4 3 9 4 2 5 1 4 1 3 2 10 3 6 4 10 4 1 1 3 3 4 2 5 5 3 1 4 2 3 5 4 
20 3 3 7 4 10 5 8 4 2 5 3 3 4 2 5 4 4 1 9 2 5 3 5 4 8 4 1 6 3 3 4 4 5 10 4 1 10 2 7 3 6 4 5 3 1 5 3 4 5 3 4 1 4 2 5 4 10 5 4 4 2 10 3 4 4 8 5 1 3 1 8 2 8 5 2 3 2 10 4 8 5 8 4 1 10 2 7 3 3 4 3 4 1 2 3 2 4 9 5 8 4 1 8 3 2 4 1 5 9 3 1 8 3 3 5 9 4 1 8 3 8 4 4 5 5 3 1 9 3 8 5 2 4 1 9 2 8 4 7 5 4 4 2 7 3 6 4 1 5 2 3 1 8 2 2 5 3 4 1 3 3 7 4 9 5 8 
20 4 1 9 2 6 4 7 5 9 4 1 7 3 8 4 10 5 9 4 1 1 2 2 3 9 4 2 3 1 3 2 1 3 8 3 2 8 4 6 5 3 3 1 5 3 6 4 1 3 1 6 4 10 5 1 4 1 1 2 5 3 3 5 10 4 2 10 3 4 4 3 5 5 4 1 3 2 2 4 10 5 5 4 1 2 3 2 4 7 5 6 3 3 9 4 1 5 8 4 1 2 2 6 3 10 5 10 4 1 2 2 8 3 9 5 2 4 2 8 3 7 4 3 5 4 3 3 4 4 8 5 5 4 1 8 2 9 4 10 5 3 3 1 4 2 1 3 2 4 1 3 2 9 3 10 4 9 3 1 9 2 1 5 5 
20 3 2 5 4 1 5 8 4 1 4 2 10 3 7 4 10 4 1 5 2 3 3 2 4 1 4 1 5 3 1 4 6 5 5 3 2 4 4 1 5 8 3 2 9 4 4 5 1 4 1 9 2 3 3 2 5 8 4 1 10 2 3 3 10 4 5 4 1 9 2 5 4 1 5 10 4 1 4 2 6 4 5 5 1 3 2 7 3 10 4 3 3 1 6 2 1 4 3 4 2 2 3 7 4 6 5 8 3 1 10 2 9 5 2 3 1 1 4 1 5 8 3 1 4 2 1 4 10 3 1 4 2 10 3 10 3 2 3 3 4 5 3 4 1 7 2 3 3 5 4 9 4 1 3 2 10 3 9 4 2 
20 4 1 5 3 5 4 1 5 8 3 1 1 2 7 3 1 3 2 10 3 7 5 2 4 1 8 2 4 3 5 5 9 3 1 6 3 7 4 7 3 2 10 3 1 5 7 3 1 5 3 10 5 9 3 2 8 4 7 5 9 3 1 8 3 9 5 6 4 1 4 2 1 4 10 5 8 4 1 3 2 7 3 5 5 4 4 2 5 3 9 4 5 5 9 3 1 6 2 1 3 6 3 2 8 4 5 5 2 3 2 6 3 3 5 5 3 3 3 4 4 5 3 4 1 6 2 3 4 8 5 9 3 2 5 3 3 4 2 4 1 4 2 7 4 7 5 7 3 2 6 4 2 5 7 
0 3 1 2 3 
1 0 1 5 
1 0 2 4 7 
1 0 1 5 
1 2 2 6 9 
2 1 3 1 15 
1 4 1 12 
1 2 2 8 15 
1 7 1 14 
1 4 1 11 
0 1 13 
1 9 1 16 
1 6 1 16 
1 10 3 17 18 19 
1 8 1 17 
2 5 7 1 18 
2 12 11 1 17 
3 16 14 13 0 
2 13 15 0 
1 13 0 
0 1 24 
0 2 22 23 
1 21 1 27 
1 21 2 25 27 
1 20 3 25 27 33 
2 24 23 1 26 
1 25 1 34 
3 24 23 22 2 31 32 
0 1 29 
1 28 1 30 
1 29 1 34 
1 27 1 35 
1 27 1 37 
1 24 1 35 
2 26 30 1 36 
2 31 33 1 36 
2 34 35 1 38 
1 32 1 38 
2 36 37 1 39 
1 38 0 
0 1 43 
0 2 42 49 
1 41 3 44 45 47 
1 40 1 47 
1 42 1 46 
1 42 1 56 
1 44 1 53 
2 42 43 1 50 
0 1 53 
1 41 2 50 51 
2 47 49 1 54 
1 49 3 52 54 58 
1 51 1 55 
2 48 46 1 54 
3 51 53 50 1 59 
1 52 0 
1 45 1 57 
1 56 1 59 
1 51 0 
2 54 57 0 
0 3 61 63 65 
1 60 2 62 68 
1 61 1 77 
1 60 1 64 
1 63 1 75 
1 60 2 67 70 
0 1 68 
1 65 1 79 
2 66 61 2 69 79 
1 68 1 71 
1 65 2 73 74 
1 69 1 72 
1 71 1 76 
1 70 1 76 
1 70 1 78 
1 64 0 
2 72 73 0 
1 62 1 79 
1 74 0 
3 68 67 77 0 
0 1 84 
0 1 82 
1 81 3 83 90 98 
1 82 1 88 
1 80 2 85 88 
1 84 1 89 
0 2 87 89 
1 86 1 93 
2 84 83 2 91 95 
2 85 86 1 91 
1 82 1 92 
2 89 88 1 97 
1 90 0 
1 87 1 94 
1 93 1 96 
1 88 1 97 
1 94 0 
2 95 91 0 
1 82 1 99 
1 98 0 
0 1 102 
0 2 103 112 
1 100 1 106 
1 101 2 104 105 
1 103 2 107 109 
1 103 1 110 
1 102 1 107 
2 106 104 1 114 
0 3 109 112 113 
2 104 108 1 117 
1 105 1 111 
1 110 1 119 
2 108 101 1 118 
1 108 1 115 
1 107 2 116 119 
1 113 1 119 
1 114 0 
1 109 0 
1 112 0 
3 111 114 115 0 
0 2 122 123 
0 1 131 
1 120 1 128 
1 120 2 124 127 
1 123 1 125 
1 124 2 126 129 
1 125 1 138 
1 123 1 129 
1 122 1 137 
2 125 127 3 130 133 139 
1 129 1 134 
1 121 1 132 
1 131 1 136 
1 129 1 136 
1 130 0 
0 1 138 
2 133 132 0 
1 128 1 138 
3 126 135 137 1 139 
2 129 138 0 
0 1 143 
0 2 142 147 
1 141 1 146 
1 140 2 144 145 
1 143 2 149 153 
1 143 1 151 
1 142 1 152 
1 141 1 150 
0 1 149 
2 148 144 2 151 156 
1 147 1 159 
2 149 145 1 157 
1 146 1 159 
1 144 1 154 
1 153 2 155 157 
1 154 1 158 
1 149 1 159 
2 154 151 1 158 
2 157 155 0 
3 152 150 156 0 
0 2 164 165 
0 1 162 
1 161 2 163 172 
1 162 1 166 
1 160 1 167 
1 160 2 167 168 
1 163 3 169 170 171 
2 164 165 1 171 
1 165 1 171 
1 166 2 174 176 
1 166 1 175 
3 168 167 166 1 173 
1 162 1 173 
2 171 172 1 178 
1 169 1 177 
1 170 2 177 179 
1 169 1 178 
2 175 174 0 
2 173 176 0 
1 175 0 
0 2 181 183 
1 180 1 188 
0 2 184 185 
1 180 2 187 189 
1 182 1 187 
1 182 1 190 
0 1 190 
2 183 184 1 192 
1 181 2 191 199 
1 183 1 197 
2 186 185 1 193 
1 188 1 196 
1 187 1 196 
1 190 2 194 195 
1 193 0 
1 193 1 198 
2 191 192 1 198 
1 189 1 199 
2 195 196 0 
2 188 197 0 
0 1 208 
0 2 202 203 
1 201 2 204 209 
1 201 1 206 
1 202 1 205 
1 204 3 207 212 213 
1 203 2 207 212 
2 206 205 1 211 
1 200 1 210 
1 202 1 219 
1 208 2 214 215 
1 207 1 216 
2 205 206 1 216 
1 205 2 217 218 
1 210 0 
1 210 1 217 
2 211 212 1 217 
3 216 213 215 0 
1 213 0 
1 209 0 
0 1 227 
0 1 223 
0 1 226 
1 221 3 224 225 232 
1 223 1 236 
1 223 1 228 
1 222 1 232 
1 220 1 229 
1 225 1 236 
1 227 2 230 231 
1 229 2 235 238 
1 229 1 233 
2 223 226 2 234 236 
1 231 1 238 
1 232 1 237 
1 230 1 239 
3 224 232 228 1 237 
2 236 234 1 238 
3 237 230 233 1 239 
2 238 235 0 
0 2 241 242 
1 240 2 243 245 
1 240 1 250 
1 241 1 249 
0 1 252 
1 241 1 247 
0 2 247 248 
2 245 246 1 255 
1 246 1 251 
1 243 1 256 
1 242 1 251 
2 248 250 3 253 254 257 
1 244 2 253 257 
2 251 252 0 
1 251 1 259 
1 247 1 258 
1 249 1 257 
3 256 252 251 1 259 
1 255 0 
2 254 257 0 
0 1 266 
0 3 263 265 266 
0 1 263 
2 261 262 1 264 
1 263 1 276 
1 261 2 267 268 
2 260 261 1 269 
1 265 1 278 
1 265 2 270 274 
1 266 1 271 
1 268 1 273 
1 269 2 272 275 
1 271 2 277 279 
1 270 1 279 
1 268 1 278 
1 271 0 
1 264 1 279 
1 272 0 
2 267 274 0 
3 276 272 273 0 
0 1 284 
0 1 289 
0 1 283 
1 282 1 288 
1 280 2 285 291 
1 284 2 286 287 
1 285 1 294 
1 285 2 294 296 
1 283 2 290 292 
1 281 1 294 
1 288 1 295 
1 284 1 292 
2 291 288 2 293 295 
1 292 1 298 
3 287 286 289 2 295 297 
3 290 292 294 1 299 
1 287 1 299 
1 294 0 
1 293 0 
2 295 296 0 
0 3 301 302 304 
1 300 1 303 
1 300 2 303 306 
2 301 302 2 305 310 
1 300 1 307 
1 303 1 308 
1 302 1 308 
1 304 2 308 309 
3 305 307 306 2 311 314 
1 307 1 319 
1 303 1 313 
1 308 1 317 
0 1 315 
1 310 1 317 
1 308 1 316 
1 312 1 316 
2 314 315 0 
2 313 311 0 
0 1 319 
2 309 318 0 
0 1 323 
0 2 326 327 
0 1 323 
2 322 320 3 324 325 328 
1 323 1 330 
1 323 1 331 
1 321 1 330 
1 321 2 329 330 
1 323 1 332 
1 327 2 333 334 
3 327 324 326 1 334 
1 325 1 335 
1 328 1 334 
1 329 1 339 
3 329 332 330 2 337 339 
1 331 1 336 
1 335 1 338 
1 334 1 338 
2 336 337 0 
2 334 333 0 
0 1 341 
1 340 1 342 
1 341 2 345 349 
0 3 344 351 356 
1 343 1 347 
1 342 1 346 
1 345 1 354 
1 344 3 348 349 350 
1 347 1 358 
2 342 347 2 352 355 
1 347 0 
1 343 1 353 
1 349 0 
1 351 1 355 
1 346 1 357 
2 349 353 0 
1 343 1 359 
1 354 0 
1 348 0 
1 356 0 
0 1 366 
0 1 363 
0 3 363 364 366 
2 361 362 3 365 367 368 
1 362 1 367 
1 363 2 369 370 
2 362 360 1 372 
2 363 364 1 370 
1 363 1 371 
1 365 1 373 
2 367 365 1 375 
1 368 1 376 
1 366 2 375 376 
1 369 1 374 
1 373 1 377 
2 370 372 1 378 
2 371 372 1 377 
2 374 376 0 
1 375 1 379 
1 378 0 
0 1 383 
0 2 384 385 
0 1 383 
2 380 382 1 387 
1 381 1 386 
1 381 2 387 388 
1 384 1 390 
2 383 385 1 389 
1 385 1 391 
1 387 2 392 394 
1 386 1 394 
1 388 2 394 395 
1 389 1 393 
1 392 2 396 399 
3 390 389 391 2 396 397 
1 391 1 398 
2 394 393 0 
1 394 1 399 
1 395 1 399 
3 393 397 398 0 
0 3 401 402 403 
1 400 2 407 409 
1 400 1 404 
1 400 1 406 
1 402 1 408 
0 1 407 
1 403 1 412 
2 405 401 2 410 411 
1 404 2 412 414 
1 401 1 410 
2 409 407 1 414 
1 407 1 418 
2 406 408 1 415 
0 1 416 
2 408 410 1 419 
1 412 1 417 
1 413 1 418 
1 415 0 
2 411 416 1 419 
2 414 418 0 
0 3 421 423 435 
1 420 2 422 434 
1 421 1 426 
1 420 1 426 
0 2 425 427 
1 424 1 436 
2 423 422 1 432 
1 424 1 430 
0 2 429 431 
1 428 1 436 
1 427 1 433 
1 428 1 433 
1 426 1 437 
2 431 430 0 
1 421 1 436 
1 420 1 438 
3 425 429 434 0 
1 432 1 439 
1 435 0 
1 437 0 
0 1 441 
1 440 1 443 
0 3 443 445 447 
2 441 442 1 444 
1 443 2 446 449 
1 442 1 451 
1 444 1 458 
1 442 1 449 
0 3 450 453 456 
2 444 447 1 458 
1 448 1 454 
1 445 2 452 455 
1 451 0 
1 448 1 459 
1 450 0 
1 451 0 
1 448 1 457 
1 456 0 
2 446 449 0 
1 453 0 
0 2 461 472 
1 460 1 464 
0 1 463 
1 462 2 465 466 
1 461 1 467 
1 463 2 468 469 
1 463 1 469 
1 464 2 471 479 
1 465 1 474 
2 465 466 1 470 
1 469 1 478 
1 467 2 477 478 
1 460 1 475 
0 2 474 476 
2 468 473 1 475 
2 472 474 0 
1 473 1 479 
1 471 0 
2 470 471 0 
2 467 476 0 
0 1 486 
0 1 483 
0 1 484 
1 481 2 487 489 
1 482 1 485 
1 484 1 492 
1 480 2 487 496 
2 483 486 2 488 495 
1 487 1 491 
1 483 1 490 
1 489 1 498 
1 488 1 493 
1 485 2 498 499 
1 491 1 494 
1 493 1 497 
1 487 2 497 499 
1 486 1 497 
3 494 495 496 0 
2 490 492 0 
2 492 495 0 
0 2 503 504 
0 1 505 
0 1 505 
1 500 2 506 507 
1 500 1 508 
2 501 502 1 507 
1 503 1 511 
2 503 505 1 510 
1 504 2 509 510 
1 508 1 512 
2 508 507 2 512 513 
1 506 2 512 514 
3 510 511 509 1 515 
1 510 1 516 
1 511 2 516 517 
1 512 1 518 
2 514 513 1 518 
1 514 1 518 
3 517 516 515 1 519 
1 518 0 
0 3 521 528 530 
1 520 3 522 533 534 
1 521 1 523 
1 522 1 525 
0 2 525 526 
2 523 524 1 527 
1 524 1 527 
2 526 525 1 538 
1 520 1 529 
1 528 1 532 
1 520 1 531 
1 530 2 535 539 
1 529 0 
1 521 1 537 
1 521 1 536 
1 531 0 
1 534 1 538 
1 533 0 
2 527 536 0 
1 531 0 
0 2 541 543 
1 540 1 542 
1 541 1 548 
1 540 2 544 557 
1 543 1 551 
0 2 546 547 
1 545 1 551 
1 545 2 549 556 
1 542 2 550 558 
1 547 1 552 
1 548 1 553 
2 544 546 2 552 554 
2 551 549 1 555 
1 550 1 555 
1 551 1 559 
2 552 553 0 
1 547 0 
1 543 1 559 
1 548 0 
2 557 554 0 
0 2 561 573 
1 560 2 563 564 
0 1 568 
1 561 1 565 
1 561 1 576 
1 563 1 567 
0 1 568 
1 565 1 569 
2 566 562 2 570 574 
1 567 1 571 
1 568 2 572 575 
1 569 1 577 
1 570 1 577 
1 560 1 574 
2 568 573 1 577 
1 570 1 579 
1 564 1 579 
3 571 572 574 2 578 579 
1 577 0 
3 577 576 575 0 
0 1 583 
0 2 582 583 
1 581 2 585 588 
2 581 580 1 585 
0 2 586 587 
2 583 582 2 589 592 
1 584 1 590 
1 584 1 592 
1 582 1 589 
2 588 585 2 591 596 
1 586 1 594 
1 589 1 597 
2 587 585 2 593 595 
1 592 1 596 
1 590 1 597 
1 592 1 598 
2 589 593 1 598 
2 591 594 1 599 
2 595 596 1 599 
2 598 597 0 
